mixintcount/benchmarks/random_v2l/4_4_7943.in
16 6
#	x1	x2	x3	x4;		0 = Real; 1 = Integer
	1	1	1	1
1	-4	1	-1	-4	659
1	1	-4	6	1	5609
1	-7	1	10	-8	2421
1	-10	-1	8	2	5398
1	1	-9	7	-2	4150
1	-3	1	5	-7	-4007
1	1	-2	2	10	-4709
1	3	-1	8	-1	-7160
1	1	0	0	0	7943
1	-1	0	0	0	7943
1	0	1	0	0	7943
1	0	-1	0	0	7943
1	0	0	1	0	7943
1	0	0	-1	0	7943
1	0	0	0	1	7943
1	0	0	0	-1	7943
